certificates/rado_a14_c136_N33.cnf
c Rad2 upper bound instance: x1 + 14*x2 - x3 = 136, interval [1,33]
p cnf 33 154
1 5 10 0
-1 -5 -10 0
1 11 19 0
-1 -11 -19 0
1 12 33 0
-1 -12 -33 0
2 6 10 0
-2 -6 -10 0
2 11 20 0
-2 -11 -20 0
3 7 10 0
-3 -7 -10 0
3 11 21 0
-3 -11 -21 0
4 8 10 0
-4 -8 -10 0
4 11 22 0
-4 -11 -22 0
5 9 10 0
-5 -9 -10 0
5 11 23 0
-5 -11 -23 0
6 10 0
-6 -10 0
6 11 24 0
-6 -11 -24 0
7 10 11 0
-7 -10 -11 0
7 11 25 0
-7 -11 -25 0
8 10 12 0
-8 -10 -12 0
8 11 26 0
-8 -11 -26 0
9 10 13 0
-9 -10 -13 0
9 11 27 0
-9 -11 -27 0
10 14 0
-10 -14 0
10 11 28 0
-10 -11 -28 0
1 9 11 0
-1 -9 -11 0
10 11 15 0
-10 -11 -15 0
11 29 0
-11 -29 0
2 9 12 0
-2 -9 -12 0
10 12 16 0
-10 -12 -16 0
11 12 30 0
-11 -12 -30 0
3 9 13 0
-3 -9 -13 0
10 13 17 0
-10 -13 -17 0
11 13 31 0
-11 -13 -31 0
4 9 14 0
-4 -9 -14 0
10 14 18 0
-10 -14 -18 0
11 14 32 0
-11 -14 -32 0
5 9 15 0
-5 -9 -15 0
10 15 19 0
-10 -15 -19 0
11 15 33 0
-11 -15 -33 0
6 9 16 0
-6 -9 -16 0
10 16 20 0
-10 -16 -20 0
7 9 17 0
-7 -9 -17 0
10 17 21 0
-10 -17 -21 0
8 9 18 0
-8 -9 -18 0
10 18 22 0
-10 -18 -22 0
9 19 0
-9 -19 0
10 19 23 0
-10 -19 -23 0
9 10 20 0
-9 -10 -20 0
10 20 24 0
-10 -20 -24 0
9 11 21 0
-9 -11 -21 0
10 21 25 0
-10 -21 -25 0
9 12 22 0
-9 -12 -22 0
10 22 26 0
-10 -22 -26 0
9 13 23 0
-9 -13 -23 0
10 23 27 0
-10 -23 -27 0
9 14 24 0
-9 -14 -24 0
10 24 28 0
-10 -24 -28 0
1 8 25 0
-1 -8 -25 0
9 15 25 0
-9 -15 -25 0
10 25 29 0
-10 -25 -29 0
2 8 26 0
-2 -8 -26 0
9 16 26 0
-9 -16 -26 0
10 26 30 0
-10 -26 -30 0
3 8 27 0
-3 -8 -27 0
9 17 27 0
-9 -17 -27 0
10 27 31 0
-10 -27 -31 0
4 8 28 0
-4 -8 -28 0
9 18 28 0
-9 -18 -28 0
10 28 32 0
-10 -28 -32 0
5 8 29 0
-5 -8 -29 0
9 19 29 0
-9 -19 -29 0
10 29 33 0
-10 -29 -33 0
6 8 30 0
-6 -8 -30 0
9 20 30 0
-9 -20 -30 0
7 8 31 0
-7 -8 -31 0
9 21 31 0
-9 -21 -31 0
8 32 0
-8 -32 0
9 22 32 0
-9 -22 -32 0
8 9 33 0
-8 -9 -33 0
9 23 33 0
-9 -23 -33 0
