certificates/rado_a14_c136_N33.drat
-29 8 -33 0
-32 -33 0
-11 -33 0
-8 -33 0
d -8 -9 -33 0
-33 0
9 10 -29 0
10 -29 0
d 9 10 -29 0
-29 0
11 0
10 0
-6 0
-14 0
-28 0
-15 0
-7 0
-9 0
19 0
8 0
23 0
16 0
4 0
24 0
18 0
5 0
25 0
17 0
0
